
Gurobi 9.5.2 (mac64[arm]) logging started Wed Apr 12 21:48:09 2023

Set parameter LogFile to value "./ccga_results/2023-04-12 21-48-08-594/MSP_TimeStampConvert_gurobi_log.txt"

Gurobi 9.5.2 (mac64[arm]) logging started Wed Apr 12 21:48:09 2023

Set parameter LogFile to value "./ccga_results/2023-04-12 21-48-08-594/MSP_TimeStampConvert_gurobi_log.txt"
Set parameter TimeLimit to value 180
Gurobi Optimizer version 9.5.2 build v9.5.2rc0 (mac64[arm])
Thread count: 8 physical cores, 8 logical processors, using up to 8 threads
Optimize a model with 600 rows, 457 columns and 1482 nonzeros
Model fingerprint: 0x80a77f99
Variable types: 25 continuous, 432 integer (432 binary)
Coefficient statistics:
  Matrix range     [1e+00, 1e+00]
  Objective range  [1e+00, 1e+00]
  Bounds range     [2e+03, 2e+03]
  RHS range        [1e+00, 1e+00]
Found heuristic solution: objective 36000.000000

Explored 0 nodes (0 simplex iterations) in 0.00 seconds (0.00 work units)
Thread count was 1 (of 8 available processors)

Solution count 1: 36000 

Optimal solution found (tolerance 5.00e-02)
Best objective 3.600000000000e+04, best bound 3.600000000000e+04, gap 0.0000%

User-callback calls 21, time in user-callback 0.00 sec
Gurobi Optimizer version 9.5.2 build v9.5.2rc0 (mac64[arm])
Thread count: 8 physical cores, 8 logical processors, using up to 8 threads
Optimize a model with 2149 rows, 961 columns and 6467 nonzeros
Model fingerprint: 0x64d772e6
Variable types: 481 continuous, 480 integer (480 binary)
Coefficient statistics:
  Matrix range     [8e-01, 8e+02]
  Objective range  [1e+00, 1e+00]
  Bounds range     [2e+03, 2e+03]
  RHS range        [1e+00, 1e+08]

MIP start from previous solve did not produce a new incumbent solution

Presolve removed 431 rows and 133 columns
Presolve time: 0.02s
Presolved: 1718 rows, 828 columns, 5680 nonzeros
Variable types: 408 continuous, 420 integer (420 binary)
Found heuristic solution: objective 35650.007956

Explored 0 nodes (0 simplex iterations) in 0.02 seconds (0.04 work units)
Thread count was 8 (of 8 available processors)

Solution count 1: 35650 

Optimal solution found (tolerance 5.00e-02)
Best objective 3.565000795613e+04, best bound 3.600000000000e+04, gap 0.9817%

User-callback calls 505, time in user-callback 0.00 sec
Gurobi Optimizer version 9.5.2 build v9.5.2rc0 (mac64[arm])
Thread count: 8 physical cores, 8 logical processors, using up to 8 threads
Optimize a model with 3698 rows, 1465 columns and 11452 nonzeros
Model fingerprint: 0x6cffb3d4
Variable types: 937 continuous, 528 integer (528 binary)
Coefficient statistics:
  Matrix range     [8e-01, 8e+02]
  Objective range  [1e+00, 1e+00]
  Bounds range     [2e+03, 2e+03]
  RHS range        [1e+00, 1e+08]

MIP start from previous solve produced solution with objective 35622.1 (0.01s)
Loaded MIP start from previous solve with objective 35622.1


Explored 0 nodes (0 simplex iterations) in 0.01 seconds (0.01 work units)
Thread count was 1 (of 8 available processors)

Solution count 1: 35622.1 

Optimal solution found (tolerance 5.00e-02)
Best objective 3.562207792034e+04, best bound 3.600000000000e+04, gap 1.0609%

User-callback calls 31, time in user-callback 0.00 sec
Gurobi Optimizer version 9.5.2 build v9.5.2rc0 (mac64[arm])
Thread count: 8 physical cores, 8 logical processors, using up to 8 threads
Optimize a model with 5247 rows, 1969 columns and 16437 nonzeros
Model fingerprint: 0x25ec3444
Variable types: 1393 continuous, 576 integer (576 binary)
Coefficient statistics:
  Matrix range     [8e-01, 8e+02]
  Objective range  [1e+00, 1e+00]
  Bounds range     [2e+03, 2e+03]
  RHS range        [1e+00, 1e+08]

MIP start from previous solve produced solution with objective 35594.2 (0.01s)
Loaded MIP start from previous solve with objective 35594.2


Explored 0 nodes (0 simplex iterations) in 0.01 seconds (0.02 work units)
Thread count was 1 (of 8 available processors)

Solution count 1: 35594.2 

Optimal solution found (tolerance 5.00e-02)
Best objective 3.559420468893e+04, best bound 3.600000000000e+04, gap 1.1401%

User-callback calls 37, time in user-callback 0.00 sec
Gurobi Optimizer version 9.5.2 build v9.5.2rc0 (mac64[arm])
Thread count: 8 physical cores, 8 logical processors, using up to 8 threads
Optimize a model with 6796 rows, 2473 columns and 21422 nonzeros
Model fingerprint: 0x66827ca6
Variable types: 1849 continuous, 624 integer (624 binary)
Coefficient statistics:
  Matrix range     [8e-01, 8e+02]
  Objective range  [1e+00, 1e+00]
  Bounds range     [2e+03, 2e+03]
  RHS range        [1e+00, 1e+08]

MIP start from previous solve produced solution with objective 35566.4 (0.01s)
Loaded MIP start from previous solve with objective 35566.4


Explored 0 nodes (0 simplex iterations) in 0.02 seconds (0.03 work units)
Thread count was 1 (of 8 available processors)

Solution count 1: 35566.4 

Optimal solution found (tolerance 5.00e-02)
Best objective 3.556642239140e+04, best bound 3.600000000000e+04, gap 1.2191%

User-callback calls 37, time in user-callback 0.00 sec
Gurobi Optimizer version 9.5.2 build v9.5.2rc0 (mac64[arm])
Thread count: 8 physical cores, 8 logical processors, using up to 8 threads
Optimize a model with 8345 rows, 2977 columns and 26407 nonzeros
Model fingerprint: 0x6fbda847
Variable types: 2305 continuous, 672 integer (672 binary)
Coefficient statistics:
  Matrix range     [8e-01, 8e+02]
  Objective range  [1e+00, 1e+00]
  Bounds range     [2e+03, 2e+03]
  RHS range        [1e+00, 1e+08]

MIP start from previous solve produced solution with objective 35538.8 (0.02s)
Loaded MIP start from previous solve with objective 35538.8


Explored 0 nodes (0 simplex iterations) in 0.02 seconds (0.04 work units)
Thread count was 1 (of 8 available processors)

Solution count 1: 35538.8 

Optimal solution found (tolerance 5.00e-02)
Best objective 3.553875667527e+04, best bound 3.600000000000e+04, gap 1.2979%

User-callback calls 39, time in user-callback 0.00 sec
Gurobi Optimizer version 9.5.2 build v9.5.2rc0 (mac64[arm])
Thread count: 8 physical cores, 8 logical processors, using up to 8 threads
Optimize a model with 9894 rows, 3481 columns and 31392 nonzeros
Model fingerprint: 0x6681e16a
Variable types: 2761 continuous, 720 integer (720 binary)
Coefficient statistics:
  Matrix range     [8e-01, 8e+02]
  Objective range  [1e+00, 1e+00]
  Bounds range     [2e+03, 2e+03]
  RHS range        [1e+00, 1e+08]

MIP start from previous solve produced solution with objective 35511.2 (0.02s)
Loaded MIP start from previous solve with objective 35511.2


Explored 0 nodes (0 simplex iterations) in 0.02 seconds (0.04 work units)
Thread count was 1 (of 8 available processors)

Solution count 1: 35511.2 

Optimal solution found (tolerance 5.00e-02)
Best objective 3.551120703030e+04, best bound 3.600000000000e+04, gap 1.3764%

User-callback calls 42, time in user-callback 0.00 sec
Gurobi Optimizer version 9.5.2 build v9.5.2rc0 (mac64[arm])
Thread count: 8 physical cores, 8 logical processors, using up to 8 threads
Optimize a model with 11443 rows, 3985 columns and 36377 nonzeros
Model fingerprint: 0x024840c4
Variable types: 3217 continuous, 768 integer (768 binary)
Coefficient statistics:
  Matrix range     [8e-01, 8e+02]
  Objective range  [1e+00, 1e+00]
  Bounds range     [2e+03, 2e+03]
  RHS range        [1e+00, 1e+08]

MIP start from previous solve produced solution with objective 35483.8 (0.03s)
Loaded MIP start from previous solve with objective 35483.8


Explored 0 nodes (0 simplex iterations) in 0.03 seconds (0.05 work units)
Thread count was 1 (of 8 available processors)

Solution count 1: 35483.8 

Optimal solution found (tolerance 5.00e-02)
Best objective 3.548377294851e+04, best bound 3.600000000000e+04, gap 1.4548%

User-callback calls 45, time in user-callback 0.00 sec
Gurobi Optimizer version 9.5.2 build v9.5.2rc0 (mac64[arm])
Thread count: 8 physical cores, 8 logical processors, using up to 8 threads
Optimize a model with 12992 rows, 4489 columns and 41362 nonzeros
Model fingerprint: 0xfc001d1c
Variable types: 3673 continuous, 816 integer (816 binary)
Coefficient statistics:
  Matrix range     [8e-01, 8e+02]
  Objective range  [1e+00, 1e+00]
  Bounds range     [2e+03, 2e+03]
  RHS range        [1e+00, 1e+08]

MIP start from previous solve produced solution with objective 35456.5 (0.03s)
Loaded MIP start from previous solve with objective 35456.5


Explored 0 nodes (0 simplex iterations) in 0.03 seconds (0.06 work units)
Thread count was 1 (of 8 available processors)

Solution count 2: 35456.5 35456.5 

Optimal solution found (tolerance 5.00e-02)
Best objective 3.545645392421e+04, best bound 3.600000000000e+04, gap 1.5330%

User-callback calls 47, time in user-callback 0.00 sec
Gurobi Optimizer version 9.5.2 build v9.5.2rc0 (mac64[arm])
Thread count: 8 physical cores, 8 logical processors, using up to 8 threads
Optimize a model with 14541 rows, 4993 columns and 46347 nonzeros
Model fingerprint: 0xdf2c4301
Variable types: 4129 continuous, 864 integer (864 binary)
Coefficient statistics:
  Matrix range     [8e-01, 8e+02]
  Objective range  [1e+00, 1e+00]
  Bounds range     [2e+03, 2e+03]
  RHS range        [1e+00, 1e+08]

MIP start from previous solve produced solution with objective 35436 (0.04s)
Loaded MIP start from previous solve with objective 35436


Explored 0 nodes (0 simplex iterations) in 0.04 seconds (0.07 work units)
Thread count was 1 (of 8 available processors)

Solution count 1: 35436 

Optimal solution found (tolerance 5.00e-02)
Best objective 3.543598631346e+04, best bound 3.600000000000e+04, gap 1.5916%

User-callback calls 51, time in user-callback 0.00 sec
Gurobi Optimizer version 9.5.2 build v9.5.2rc0 (mac64[arm])
Thread count: 8 physical cores, 8 logical processors, using up to 8 threads
Optimize a model with 16090 rows, 5497 columns and 51332 nonzeros
Model fingerprint: 0xfc5f6cb6
Variable types: 4585 continuous, 912 integer (912 binary)
Coefficient statistics:
  Matrix range     [8e-01, 8e+02]
  Objective range  [1e+00, 1e+00]
  Bounds range     [2e+03, 2e+03]
  RHS range        [1e+00, 1e+08]

MIP start from previous solve produced solution with objective 34735.7 (0.04s)
Loaded MIP start from previous solve with objective 34735.7


Explored 0 nodes (0 simplex iterations) in 0.04 seconds (0.07 work units)
Thread count was 1 (of 8 available processors)

Solution count 1: 34735.7 

Optimal solution found (tolerance 5.00e-02)
Best objective 3.473567104565e+04, best bound 3.600000000000e+04, gap 3.6399%

User-callback calls 50, time in user-callback 0.00 sec
